[1, 2, 10, 4, 6, 5, 9, 7, 10, 8, 11, 14, 11, 13, 15, 16, 17, 18, 19, 19, 23, 24, 24, 27, 24, 25, 26, 26, 25, 27, 29, 31, 24, 44, 41, 39, 40, 42, 39, 40, 41, 44, 41, 44, 45, 46, 47, 47, 53, 51, 50, 47, 45, 56, 53, 46, 59, 58, 62, 60, 62, 61, 61, 62, 63, 64, 67, 68, 68, 69, 70, 72, 80, 76, 81, 75, 73, 74, 78, 77, 79, 82, 82, 84, 85, 116, 115, 93, 103, 91, 93, 92, 91, 94, 95, 96, 93, 102, 100, 99, 101, 98, 100, 105, 104, 111, 109, 108, 113, 116, 117, 116, 113, 112, 114, 115, 115, 116, 119, 121, 120, 129, 127, 130, 122, 125, 127, 128, 126, 130, 131, 135, 135, 135, 134, 136, 138, 140, 139, 138, 140, 141, 146, 142, 143, 145, 149, 150, 157, 154, 155, 153, 150, 156, 152, 149, 151, 159, 158, 159, 161, 162, 164, 163, 163, 165, 164, 166, 168, 167, 171, 173, 166, 164, 184, 176, 178, 176, 177, 180, 182, 182, 183, 184, 187, 193, 190, 191, 190, 191, 190, 192, 192, 194, 193, 195, 197, 197, 198, 199, 202, 203, 202, 204, 205, 210, 204, 208, 210, 209, 211, 212, 213, 217, 215, 221, 220, 218, 214, 220, 219, 216, 215, 211, 229, 228, 227, 225, 226, 229, 231, 231, 231, 230, 235, 237, 236, 238, 238, 239, 241, 242, 242, 243, 245, 248, 246, 248, 249, 250, 251, 254, 253, 252, 255, 256, 257, 260, 258, 259, 259, 259, 263, 264, 265, 266, 268, 267, 268, 269, 265, 272, 273, 271, 273, 276, 277, 278, 279, 3]
[2, 3, 5, 6, 8, 12, 14, 16, 17, 22, 30, 38, 38, 39, 39, 50, 57, 61, 61, 61, 62, 63, 68, 69, 71, 72, 75, 77, 78, 80, 81, 81, 84, 90, 90, 93, 102, 104, 107, 108, 112, 112, 114, 114, 114, 115, 115, 115, 115, 120, 121, 127, 129, 129, 130, 138, 139, 139, 141, 144, 145, 148, 148, 151, 154, 157, 158, 158, 160, 164, 166, 167, 170, 176, 179, 182, 186, 191, 191, 197, 202, 211, 213, 216, 217, 224, 225, 230, 230, 230, 234, 235, 236, 240, 241, 241, 244, 247, 247, 248, 249, 252, 253, 254, 259, 262, 266, 267, 267, 268, 271, 272, 272, 280, 282, 285, 287, 288, 288, 289, 289, 292, 295, 303, 303, 309, 323, 323, 324, 324, 328, 329, 334, 341, 342, 346, 346, 348, 350, 351, 355, 357, 362, 372, 373, 376, 378, 378, 380, 390, 393, 393, 393, 395, 397, 400, 406, 409, 416, 416, 417, 418, 418, 420, 424, 428, 428, 432, 433, 434, 439, 442, 442, 442, 443, 445, 446, 455, 456, 458, 461, 462, 462, 465, 470, 470, 472, 473, 475, 475, 477, 481, 482, 482, 483, 486, 487, 489, 489, 490, 497, 503, 513, 514, 519, 521, 523, 530, 533, 534, 542, 544, 551, 551, 555, 556, 560, 561, 564, 565, 567, 567, 570, 571, 572, 574, 575, 576, 576, 581, 581, 581, 581, 582, 582, 583, 583, 588, 596, 596, 597, 597, 599, 602, 602, 603, 603, 604, 604, 604, 607, 613, 616, 619, 619, 619, 621, 625, 625, 629, 630, 631, 632, 633, 635, 637, 642, 650, 650, 650, 652, 653, 656, 658, 661, 668, 670, 670, 671, 677, 683, 684, 684, 686, 688, 691, 695, 695, 699, 702, 708, 711, 712, 714, 715, 718, 720, 720, 721, 721, 721, 722, 723, 723, 724, 728, 735, 737, 739, 739, 744, 752, 755, 759, 759, 766, 769, 771, 772, 772, 782, 783, 784, 787, 792, 793, 795, 795, 796, 800, 807, 813, 815, 816, 816, 816, 820, 825, 825, 829, 835, 838, 839, 843, 851, 852, 859, 862, 862, 863, 863, 865, 881, 881, 886, 892, 896, 899, 903, 904, 904, 908, 914, 916, 920, 921, 928, 932, 934, 935, 937, 944, 945, 947, 956, 958, 961, 962, 964, 966, 966, 967, 978, 979, 981, 982, 986, 986, 987, 992, 993, 1001, 1007, 1012, 1012, 1013, 1016, 1018, 1018, 1027, 1027, 1030, 1034, 1040, 1040, 1041, 1045, 1046, 1046, 1047, 1047, 1048, 1049, 1052, 1053, 1054, 1055, 1064, 1066, 1074, 1074, 1075, 1079, 1086, 1089, 1092, 1099, 1100, 1104, 1104, 1105, 1108, 1109, 1109, 1113, 1114, 1115, 1120, 1121, 1122, 1123, 1125, 1125, 1129, 1130, 1134, 1134, 1138, 1141, 1141, 1146, 1156, 1156, 1156, 1157, 1159, 1159, 1159, 1162, 1162, 1162, 1171, 1173, 1174, 1175, 1176, 1176, 1178, 1179, 1183, 1183, 1184, 1185, 1189, 1190, 1192, 1195, 1199, 1200, 1206, 1206, 1207, 1211, 1214, 1216, 1218, 1220, 1226, 1228, 1228, 1229, 1231, 1231, 1231, 1231, 1234, 1240, 1243, 1244, 1246, 1254, 1255, 1255, 1260, 1261, 1268, 1270, 1273, 1274, 1274, 1282, 1288, 1292, 1295, 1298, 1302, 1308, 1308, 1310, 1313, 1317, 1317, 1318, 1319, 1319, 1323, 1324, 1325, 1325, 1327, 1329, 1330, 1330, 1331, 1332, 1341, 1342, 1351, 1353, 1353, 1356, 1357, 1357, 1358, 1363, 1363, 1365, 1369, 1372, 1373, 1380, 1380, 1382, 1383, 1383]
